61 61
50 7
27 22
12 8
49 22
7 9
61 19
18 26
55 17
3 5
17 23
2 26
10 12
60 18
51 11
15 16
38 29
20 25
37 21
4 6
57 20
32 23
35 28
40 9
9 30
5 1
6 4
14 2
24 5
39 27
29 10
47 31
34 17
36 18
53 20
52 13
22 8
45 15
41 13
43 1
58 11
26 2
23 29
33 24
54 19
13 30
46 16
19 12
48 27
21 28
8 3
56 7
44 15
30 21
25 10
28 25
31 6
1 24
11 14
42 3
59 4
16 14
